54
19
0 20 22 23 24 26 27 29 31 32 36 38 39 40 41 42 43 44 45 46 48 49
1 19 20 23 27 31 32 33 36 38 39 40 41 43 44 45 46 47 49 50
2 19 20 22 27 29 30 31 34 36 37 38 39 40 41 42 43 44 47 48 53
3 19 22 27 31 32 38 39 40 44 45 46 47 49 50 53
4 19 20 21 22 23 24 25 26 30 31 35 37 38 39 40 41 44 45 46 48 49 50 53
5 22 24 25 27 31 36 37 39 40 41 42 43 46 48 49 50
6 24 25 26 28 32 34 36 39 40 41 44 45 46 47 53
7 20 21 22 23 30 33 34 36 37 38 39 40 41 45 46 47 48 49
8 19 20 21 22 23 24 25 26 27 29 30 32 36 38 39 40 43 45 47 48 49 51 53
9 22 23 25 26 31 32 33 36 40 42 47 48 49
10 19 20 22 23 26 31 33 34 35 39 42 43 44 45 50 52
11 19 20 23 24 25 30 35 42 44 45 50
12 23 24 25 32 33 35 36 38 39 40 47 48 50 53
13 20 24 27 33 35 37 39 41 42 43 44 46 50
14 19 21 23 25 26 30 40 41 42 45 46 49 52
15 21 27 33 41 52
16 19 20 22 23 38
17 47
18 27 32 34
